************************************************************************
file with basedata            : mm27_.bas
initial value random generator: 384382780
************************************************************************
projects                      :  1
jobs (incl. supersource/sink ):  12
horizon                       :  81
RESOURCES
  - renewable                 :  2   R
  - nonrenewable              :  2   N
  - doubly constrained        :  0   D
************************************************************************
PROJECT INFORMATION:
pronr.  #jobs rel.date duedate tardcost  MPM-Time
    1     10      0       12        3       12
************************************************************************
PRECEDENCE RELATIONS:
jobnr.    #modes  #successors   successors
   0        1          3           1   2   3
   1        3          1           4
   2        3          2           5  10
   3        3          1           6
   4        3          2           9  10
   5        3          2           8   9
   6        3          2           7   8
   7        3          2           9  10
   8        3          1          11
   9        3          1          11
  10        3          1          11
  11        1          0        
************************************************************************
REQUESTS/DURATIONS:
jobnr. mode duration  R 1  R 2  R 3  R 4  E(W 1)
------------------------------------------------------------------------
  0      1     0       0    0    0    0     0
  1      1     2       0   10    0    6    32
  2      1     1       0    9    0    4    13
  3      1     1       0    3    9    0    12
  4      1     1       6    0    0    7    13
  5      1     4       5    0    7    0    48
  6      1     1       0    8    7    0    15
  7      1     4       7    0    0    4    44
  8      1     4       0    5    0    8    52
  9      1     6       0    9    6    0    90
 10      1     2       0    8    8    0    32
 11      1     0       0    0    0    0     0
************************************************************************
RESOURCEAVAILABILITIES:
  R 1
   123
************************************************************************
RESOURCE LIMITS:
jobnr.  l(R 1)  u(R 1)
------------------------------------------------------------------------
  0        0       0
  1        8      16
  2        7      13
  3        7      12
  4        7      13
  5        7      12
  6        8      15
  7        6      11
  8        7      13
  9        8      15
 10        8      16
 11        0       0
************************************************************************
SCENARIOS:
------------------------------------------------------------------------
RESOURCE k = 1
s = 1: (0, 31, 15, 14, 13, 46, 12, 41, 46, 65, 42, 0)
s = 2: (0, 27, 18, 13, 10, 46, 9, 30, 63, 109, 44, 0)
s = 3: (0, 38, 12, 14, 18, 55, 23, 45, 38, 139, 29, 0)
s = 4: (0, 21, 10, 13, 18, 31, 23, 55, 51, 95, 36, 0)
s = 5: (0, 43, 15, 16, 14, 30, 12, 36, 58, 101, 33, 0)
s = 6: (0, 31, 18, 14, 8, 40, 14, 36, 33, 121, 33, 0)
s = 7: (0, 27, 17, 9, 10, 31, 15, 26, 55, 107, 24, 0)
s = 8: (0, 32, 18, 18, 10, 31, 16, 53, 36, 66, 42, 0)
s = 9: (0, 22, 9, 11, 9, 45, 22, 63, 51, 82, 37, 0)
s = 10: (0, 56, 11, 12, 9, 62, 14, 61, 43, 98, 46, 0)
s = 11: (0, 46, 14, 11, 14, 57, 10, 62, 64, 81, 46, 0)
s = 12: (0, 36, 13, 12, 10, 48, 18, 34, 29, 69, 28, 0)
s = 13: (0, 38, 12, 18, 16, 93, 13, 68, 34, 67, 44, 0)
s = 14: (0, 25, 11, 14, 7, 77, 9, 34, 45, 78, 32, 0)
s = 15: (0, 38, 19, 13, 10, 65, 11, 46, 44, 63, 25, 0)
s = 16: (0, 24, 20, 8, 9, 56, 19, 48, 59, 109, 19, 0)
s = 17: (0, 26, 19, 10, 12, 69, 15, 30, 42, 66, 39, 0)
s = 18: (0, 33, 16, 13, 14, 45, 16, 24, 57, 84, 49, 0)
s = 19: (0, 50, 19, 11, 13, 37, 10, 40, 49, 83, 25, 0)
s = 20: (0, 33, 7, 10, 10, 39, 10, 34, 49, 62, 22, 0)
s = 21: (0, 38, 11, 11, 8, 53, 12, 65, 54, 142, 36, 0)
s = 22: (0, 22, 10, 11, 15, 64, 15, 55, 63, 80, 22, 0)
s = 23: (0, 39, 17, 10, 20, 53, 15, 38, 52, 79, 20, 0)
s = 24: (0, 37, 19, 15, 14, 37, 12, 30, 44, 71, 27, 0)
s = 25: (0, 36, 17, 17, 18, 52, 13, 46, 35, 63, 23, 0)
s = 26: (0, 23, 10, 17, 12, 37, 21, 46, 47, 143, 22, 0)
s = 27: (0, 51, 9, 13, 8, 72, 17, 42, 45, 80, 22, 0)
s = 28: (0, 21, 11, 15, 9, 56, 11, 43, 31, 61, 50, 0)
s = 29: (0, 22, 15, 10, 12, 38, 16, 32, 62, 53, 42, 0)
s = 30: (0, 49, 13, 16, 18, 63, 17, 34, 50, 94, 28, 0)
s = 31: (0, 30, 17, 10, 10, 58, 25, 73, 37, 96, 22, 0)
s = 32: (0, 26, 16, 14, 20, 69, 18, 53, 48, 103, 31, 0)
s = 33: (0, 35, 15, 10, 12, 31, 10, 38, 66, 113, 33, 0)
s = 34: (0, 27, 17, 7, 21, 32, 15, 51, 52, 78, 35, 0)
s = 35: (0, 30, 12, 10, 12, 63, 17, 34, 79, 81, 37, 0)
s = 36: (0, 26, 9, 10, 15, 54, 22, 40, 45, 123, 32, 0)
s = 37: (0, 21, 14, 12, 13, 39, 16, 54, 74, 75, 40, 0)
s = 38: (0, 19, 10, 12, 14, 54, 12, 29, 68, 111, 30, 0)
s = 39: (0, 26, 14, 16, 9, 52, 16, 48, 65, 139, 41, 0)
s = 40: (0, 31, 20, 10, 11, 38, 14, 60, 44, 125, 36, 0)
s = 41: (0, 29, 12, 10, 15, 88, 23, 31, 71, 108, 23, 0)
s = 42: (0, 22, 9, 15, 16, 53, 20, 43, 58, 67, 37, 0)
s = 43: (0, 30, 7, 9, 9, 32, 12, 32, 35, 77, 35, 0)
s = 44: (0, 48, 10, 7, 16, 55, 13, 28, 58, 56, 34, 0)
s = 45: (0, 39, 13, 17, 14, 49, 9, 58, 72, 81, 33, 0)
s = 46: (0, 28, 11, 17, 10, 44, 9, 41, 66, 70, 25, 0)
s = 47: (0, 31, 16, 18, 12, 72, 12, 52, 56, 82, 21, 0)
s = 48: (0, 25, 15, 12, 12, 46, 14, 53, 49, 61, 29, 0)
s = 49: (0, 28, 12, 10, 18, 32, 10, 62, 95, 70, 37, 0)
s = 50: (0, 29, 13, 11, 16, 53, 10, 40, 52, 81, 39, 0)
s = 51: (0, 27, 9, 13, 21, 50, 21, 24, 55, 84, 46, 0)
s = 52: (0, 34, 12, 11, 9, 49, 16, 53, 38, 135, 55, 0)
s = 53: (0, 21, 14, 15, 9, 57, 12, 67, 42, 67, 25, 0)
s = 54: (0, 27, 12, 13, 13, 66, 18, 63, 72, 141, 35, 0)
s = 55: (0, 34, 18, 9, 13, 49, 17, 30, 35, 80, 40, 0)
s = 56: (0, 41, 18, 10, 14, 52, 21, 66, 43, 75, 32, 0)
s = 57: (0, 27, 13, 13, 14, 80, 13, 41, 76, 116, 29, 0)
s = 58: (0, 33, 11, 14, 21, 25, 22, 49, 58, 118, 27, 0)
s = 59: (0, 36, 21, 13, 11, 60, 14, 42, 75, 98, 39, 0)
s = 60: (0, 34, 10, 14, 17, 41, 13, 46, 29, 67, 45, 0)
s = 61: (0, 29, 20, 9, 15, 59, 16, 64, 77, 73, 22, 0)
s = 62: (0, 44, 11, 7, 10, 53, 11, 42, 49, 79, 57, 0)
s = 63: (0, 50, 11, 17, 9, 44, 12, 34, 74, 106, 24, 0)
s = 64: (0, 19, 18, 9, 12, 46, 12, 33, 53, 132, 41, 0)
s = 65: (0, 21, 9, 10, 14, 61, 10, 48, 61, 75, 32, 0)
s = 66: (0, 25, 15, 14, 15, 44, 21, 47, 35, 133, 28, 0)
s = 67: (0, 26, 12, 10, 21, 50, 13, 30, 41, 105, 20, 0)
s = 68: (0, 20, 17, 13, 9, 72, 24, 59, 35, 80, 34, 0)
s = 69: (0, 21, 14, 15, 18, 92, 17, 52, 48, 75, 20, 0)
s = 70: (0, 23, 12, 11, 14, 39, 17, 58, 47, 58, 29, 0)
s = 71: (0, 21, 11, 16, 20, 57, 12, 60, 30, 58, 22, 0)
s = 72: (0, 28, 11, 10, 9, 30, 9, 45, 29, 158, 32, 0)
s = 73: (0, 36, 16, 14, 14, 53, 17, 62, 70, 60, 48, 0)
s = 74: (0, 26, 17, 18, 16, 69, 22, 38, 41, 132, 47, 0)
s = 75: (0, 19, 11, 10, 14, 44, 12, 24, 32, 83, 38, 0)
s = 76: (0, 35, 8, 12, 10, 37, 15, 59, 63, 62, 35, 0)
s = 77: (0, 23, 20, 10, 19, 29, 14, 47, 48, 115, 36, 0)
s = 78: (0, 57, 15, 12, 17, 56, 16, 49, 59, 89, 22, 0)
s = 79: (0, 33, 10, 9, 11, 62, 16, 59, 84, 71, 25, 0)
s = 80: (0, 37, 12, 14, 9, 41, 13, 39, 51, 67, 47, 0)
s = 81: (0, 20, 19, 9, 15, 60, 11, 49, 47, 87, 35, 0)
s = 82: (0, 33, 8, 13, 10, 32, 18, 32, 85, 76, 28, 0)
s = 83: (0, 45, 16, 19, 15, 58, 9, 46, 73, 119, 22, 0)
s = 84: (0, 24, 8, 9, 12, 59, 19, 47, 34, 138, 52, 0)
s = 85: (0, 20, 15, 18, 13, 37, 12, 42, 44, 55, 62, 0)
s = 86: (0, 36, 14, 7, 12, 78, 14, 47, 49, 86, 27, 0)
s = 87: (0, 18, 12, 12, 11, 27, 18, 48, 52, 105, 36, 0)
s = 88: (0, 57, 9, 15, 9, 50, 13, 63, 42, 78, 29, 0)
s = 89: (0, 20, 13, 14, 10, 58, 15, 33, 44, 72, 37, 0)
s = 90: (0, 21, 19, 11, 9, 58, 12, 52, 62, 132, 30, 0)
s = 91: (0, 31, 14, 12, 12, 45, 18, 43, 74, 59, 21, 0)
s = 92: (0, 51, 14, 11, 17, 44, 22, 53, 88, 66, 33, 0)
s = 93: (0, 32, 17, 22, 16, 29, 12, 31, 51, 65, 54, 0)
s = 94: (0, 50, 14, 18, 16, 58, 14, 51, 62, 102, 40, 0)
s = 95: (0, 29, 12, 13, 17, 33, 20, 33, 30, 129, 46, 0)
s = 96: (0, 33, 12, 14, 17, 34, 17, 57, 36, 65, 34, 0)
s = 97: (0, 38, 14, 11, 12, 38, 11, 41, 49, 73, 33, 0)
s = 98: (0, 31, 11, 18, 17, 36, 19, 42, 43, 120, 36, 0)
s = 99: (0, 30, 16, 14, 15, 45, 16, 49, 53, 120, 25, 0)
s = 100: (0, 22, 12, 13, 8, 36, 12, 40, 35, 141, 36, 0)
s = 101: (0, 41, 15, 9, 11, 27, 16, 44, 44, 91, 31, 0)
s = 102: (0, 27, 13, 9, 11, 51, 14, 59, 49, 113, 24, 0)
s = 103: (0, 30, 15, 12, 11, 36, 22, 45, 55, 111, 45, 0)
s = 104: (0, 36, 12, 18, 15, 40, 11, 40, 39, 95, 27, 0)
s = 105: (0, 21, 14, 14, 16, 39, 14, 58, 73, 64, 38, 0)
s = 106: (0, 36, 14, 9, 12, 65, 17, 58, 51, 130, 31, 0)
s = 107: (0, 35, 10, 15, 11, 57, 10, 28, 57, 95, 58, 0)
s = 108: (0, 54, 21, 11, 16, 37, 14, 47, 75, 95, 24, 0)
s = 109: (0, 24, 13, 10, 9, 27, 10, 42, 59, 101, 25, 0)
s = 110: (0, 43, 15, 16, 11, 65, 13, 67, 45, 72, 25, 0)
s = 111: (0, 20, 10, 10, 11, 48, 13, 59, 54, 105, 22, 0)
s = 112: (0, 28, 9, 11, 15, 48, 20, 56, 74, 98, 33, 0)
s = 113: (0, 19, 19, 9, 13, 51, 14, 33, 50, 47, 34, 0)
s = 114: (0, 34, 12, 12, 20, 42, 22, 42, 45, 77, 48, 0)
s = 115: (0, 36, 11, 11, 15, 46, 12, 69, 70, 124, 21, 0)
s = 116: (0, 24, 22, 12, 10, 60, 17, 33, 75, 52, 27, 0)
s = 117: (0, 28, 14, 19, 15, 35, 17, 32, 95, 80, 33, 0)
s = 118: (0, 27, 10, 16, 15, 55, 11, 62, 57, 95, 22, 0)
s = 119: (0, 41, 9, 11, 19, 63, 14, 37, 32, 54, 38, 0)
s = 120: (0, 33, 14, 12, 13, 48, 15, 33, 53, 148, 53, 0)
s = 121: (0, 29, 11, 12, 9, 62, 15, 40, 34, 89, 37, 0)
s = 122: (0, 43, 10, 15, 11, 50, 9, 60, 28, 71, 46, 0)
s = 123: (0, 50, 17, 21, 13, 54, 11, 32, 30, 67, 26, 0)
s = 124: (0, 31, 14, 17, 14, 43, 14, 39, 57, 74, 22, 0)
s = 125: (0, 18, 11, 13, 11, 56, 23, 71, 70, 76, 23, 0)
s = 126: (0, 22, 15, 16, 14, 49, 13, 64, 94, 86, 24, 0)
s = 127: (0, 27, 12, 14, 10, 70, 10, 49, 61, 99, 27, 0)
s = 128: (0, 35, 15, 13, 13, 56, 12, 48, 52, 102, 31, 0)
s = 129: (0, 41, 13, 14, 14, 38, 13, 35, 38, 71, 45, 0)
s = 130: (0, 30, 13, 15, 9, 39, 13, 38, 41, 86, 25, 0)
s = 131: (0, 25, 16, 10, 10, 44, 11, 42, 42, 111, 35, 0)
s = 132: (0, 32, 18, 9, 14, 55, 17, 45, 50, 67, 39, 0)
s = 133: (0, 32, 12, 22, 12, 48, 26, 62, 62, 55, 42, 0)
s = 134: (0, 24, 12, 9, 23, 31, 11, 55, 50, 77, 27, 0)
s = 135: (0, 39, 14, 10, 20, 41, 20, 46, 53, 113, 33, 0)
s = 136: (0, 23, 13, 12, 14, 30, 24, 37, 62, 90, 43, 0)
s = 137: (0, 23, 20, 15, 13, 41, 9, 52, 39, 81, 50, 0)
s = 138: (0, 28, 10, 10, 11, 44, 14, 34, 46, 85, 35, 0)
s = 139: (0, 34, 17, 9, 11, 44, 17, 80, 69, 64, 31, 0)
s = 140: (0, 22, 10, 12, 20, 61, 19, 33, 79, 55, 40, 0)
s = 141: (0, 40, 9, 17, 11, 43, 15, 48, 69, 50, 47, 0)
s = 142: (0, 26, 15, 13, 19, 47, 17, 64, 50, 111, 22, 0)
s = 143: (0, 24, 15, 13, 16, 65, 15, 47, 43, 108, 26, 0)
s = 144: (0, 37, 14, 15, 14, 60, 23, 66, 54, 118, 27, 0)
s = 145: (0, 24, 15, 13, 14, 37, 12, 62, 44, 85, 45, 0)
s = 146: (0, 50, 12, 8, 11, 75, 15, 67, 42, 55, 25, 0)
s = 147: (0, 32, 14, 11, 12, 40, 17, 49, 41, 62, 24, 0)
s = 148: (0, 48, 15, 17, 8, 43, 22, 39, 35, 67, 29, 0)
s = 149: (0, 20, 11, 11, 12, 55, 12, 37, 31, 59, 24, 0)
s = 150: (0, 57, 15, 18, 9, 36, 11, 39, 59, 80, 36, 0)
s = 151: (0, 40, 10, 13, 10, 41, 11, 26, 28, 96, 40, 0)
s = 152: (0, 36, 16, 9, 16, 33, 15, 53, 56, 119, 36, 0)
s = 153: (0, 40, 8, 9, 15, 46, 18, 45, 52, 88, 40, 0)
s = 154: (0, 20, 13, 14, 18, 27, 17, 28, 37, 62, 20, 0)
s = 155: (0, 36, 15, 9, 16, 53, 14, 59, 83, 108, 35, 0)
s = 156: (0, 26, 16, 9, 15, 51, 9, 46, 80, 104, 49, 0)
s = 157: (0, 36, 16, 11, 11, 52, 14, 42, 52, 65, 23, 0)
s = 158: (0, 38, 16, 10, 11, 58, 20, 43, 88, 154, 63, 0)
s = 159: (0, 32, 12, 13, 15, 31, 15, 66, 48, 89, 17, 0)
s = 160: (0, 53, 13, 9, 8, 27, 14, 46, 87, 66, 48, 0)
s = 161: (0, 23, 12, 7, 9, 52, 11, 25, 35, 57, 61, 0)
s = 162: (0, 37, 24, 17, 18, 59, 14, 41, 60, 104, 20, 0)
s = 163: (0, 37, 12, 8, 17, 33, 23, 42, 67, 91, 38, 0)
s = 164: (0, 21, 13, 8, 12, 36, 15, 32, 71, 56, 29, 0)
s = 165: (0, 21, 19, 11, 16, 49, 14, 56, 33, 89, 20, 0)
s = 166: (0, 25, 13, 9, 13, 40, 11, 36, 60, 63, 37, 0)
s = 167: (0, 34, 9, 16, 15, 41, 10, 31, 62, 130, 26, 0)
s = 168: (0, 37, 14, 12, 13, 94, 15, 39, 35, 57, 19, 0)
s = 169: (0, 47, 9, 7, 14, 43, 20, 34, 62, 132, 31, 0)
s = 170: (0, 32, 12, 14, 22, 47, 16, 49, 44, 62, 34, 0)
s = 171: (0, 22, 12, 10, 16, 61, 20, 62, 42, 152, 33, 0)
s = 172: (0, 45, 13, 10, 13, 38, 11, 55, 82, 121, 42, 0)
s = 173: (0, 55, 17, 11, 20, 48, 15, 51, 43, 72, 27, 0)
s = 174: (0, 22, 17, 12, 14, 43, 10, 45, 77, 90, 29, 0)
s = 175: (0, 21, 10, 14, 15, 46, 26, 28, 62, 83, 28, 0)
s = 176: (0, 41, 19, 10, 10, 54, 10, 39, 52, 68, 23, 0)
s = 177: (0, 18, 16, 20, 15, 37, 14, 46, 69, 121, 20, 0)
s = 178: (0, 29, 13, 13, 11, 63, 23, 70, 69, 69, 42, 0)
s = 179: (0, 40, 12, 16, 11, 92, 13, 52, 74, 108, 40, 0)
s = 180: (0, 30, 11, 19, 10, 72, 19, 67, 72, 92, 37, 0)
s = 181: (0, 27, 17, 13, 8, 62, 11, 62, 31, 66, 24, 0)
s = 182: (0, 26, 19, 10, 10, 69, 13, 38, 34, 116, 26, 0)
s = 183: (0, 47, 19, 12, 16, 31, 10, 25, 44, 121, 24, 0)
s = 184: (0, 45, 8, 7, 11, 58, 11, 57, 37, 71, 29, 0)
s = 185: (0, 57, 17, 8, 17, 55, 26, 30, 84, 96, 41, 0)
s = 186: (0, 46, 16, 11, 20, 49, 11, 46, 50, 68, 18, 0)
s = 187: (0, 20, 18, 9, 14, 35, 14, 32, 65, 130, 28, 0)
s = 188: (0, 22, 13, 14, 20, 58, 11, 30, 69, 106, 28, 0)
s = 189: (0, 38, 14, 15, 8, 36, 18, 30, 74, 94, 32, 0)
s = 190: (0, 50, 15, 9, 20, 44, 10, 36, 48, 87, 34, 0)
s = 191: (0, 42, 10, 16, 13, 36, 11, 34, 48, 106, 31, 0)
s = 192: (0, 43, 13, 21, 16, 62, 13, 34, 57, 102, 21, 0)
s = 193: (0, 64, 12, 9, 9, 30, 18, 55, 31, 78, 25, 0)
s = 194: (0, 23, 10, 11, 10, 71, 9, 52, 49, 121, 19, 0)
s = 195: (0, 34, 18, 18, 12, 49, 10, 38, 89, 124, 27, 0)
s = 196: (0, 19, 19, 9, 15, 37, 9, 47, 38, 57, 27, 0)
s = 197: (0, 25, 10, 15, 13, 40, 15, 38, 76, 71, 26, 0)
s = 198: (0, 22, 19, 12, 13, 50, 17, 37, 36, 86, 37, 0)
s = 199: (0, 40, 8, 10, 8, 33, 15, 43, 48, 108, 40, 0)
s = 200: (0, 38, 16, 10, 16, 42, 12, 69, 57, 62, 37, 0)
************************************************************************
ES/LS-VALUES:
jobnr.   ES(i)    LS(i)
------------------------------------------------------------------------
  0        0        0
  1        0       64
  2        0       60
  3        0       58
  4        4       68
  5        1       62
  6        1       60
  7        2       62
  8        8       73
  9        9       70
 10        9       77
 11       19       81
************************************************************************
BIG-M-VALUES:
M1 = 20, M2 = 158
************************************************************************
